\ENCODING=ISO-8859-1
\Problem name: ilog.cplex

Maximize
 obj: 630 x(0)#0 + 729 x(1)#1 + 468 x(2)#2 + 307 x(3)#3 + 761 x(4)#4
      + 579 x(5)#5 + 1045 x(6)#6 + 813 x(7)#7 + 582 x(8)#8 + 496 x(9)#9
      + 569 x(10)#10 + 564 x(11)#11 + 869 x(12)#12 + 789 x(13)#13
      + 582 x(14)#14 + 624 x(15)#15 + 520 x(16)#16 + 666 x(17)#17
      + 696 x(18)#18 + 651 x(19)#19 + 704 x(20)#20 + 343 x(21)#21
      + 770 x(22)#22 + 844 x(23)#23 + 771 x(24)#24 + 937 x(25)#25
      + 333 x(26)#26 + 1012 x(27)#27 + 763 x(28)#28 + 403 x(29)#29
      + 998 x(30)#30 + 765 x(31)#31 + 1103 x(32)#32 + 574 x(33)#33
      + 689 x(34)#34 + 741 x(35)#35 + 566 x(36)#36 + 977 x(37)#37
      + 491 x(38)#38 + 1025 x(39)#39 + 898 x(40)#40 + 427 x(41)#41
      + 922 x(42)#42 + 993 x(43)#43 + 780 x(44)#44 + 458 x(45)#45
      + 1106 x(46)#46 + 832 x(47)#47 + 827 x(48)#48 + 726 x(49)#49
      + 953 x(50)#50 + 740 x(51)#51 + 528 x(52)#52 + 616 x(53)#53
      + 897 x(54)#54 + 1109 x(55)#55 + 359 x(56)#56 + 813 x(57)#57
      + 690 x(58)#58 + 678 x(59)#59 + 668 x(60)#60 + 1110 x(61)#61
      + 719 x(62)#62 + 800 x(63)#63 + 989 x(64)#64 + 977 x(65)#65
      + 550 x(66)#66 + 460 x(67)#67 + 768 x(68)#68 + 760 x(69)#69
      + 802 x(70)#70 + 743 x(71)#71 + 638 x(72)#72 + 834 x(73)#73
      + 600 x(74)#74 + 788 x(75)#75 + 687 x(76)#76 + 548 x(77)#77
      + 1066 x(78)#78 + 510 x(79)#79 + 584 x(80)#80 + 1039 x(81)#81
      + 429 x(82)#82 + 887 x(83)#83 + 906 x(84)#84 + 949 x(85)#85
      + 919 x(86)#86 + 957 x(87)#87 + 407 x(88)#88 + 766 x(89)#89
      + 912 x(90)#90 + 621 x(91)#91 + 561 x(92)#92 + 589 x(93)#93
      + 490 x(94)#94 + 401 x(95)#95 + 796 x(96)#96 + 790 x(97)#97
      + 778 x(98)#98 + 922 x(99)#99
Subject To
 c1: 884 x(0)#0 + 667 x(1)#1 + 13 x(2)#2 + 143 x(3)#3 + 333 x(4)#4 + 464 x(5)#5
     + 938 x(6)#6 + 225 x(7)#7 + 37 x(8)#8 + 193 x(9)#9 + 531 x(10)#10
     + 750 x(11)#11 + 933 x(12)#12 + 385 x(13)#13 + 877 x(14)#14 + 179 x(15)#15
     + 639 x(16)#16 + 427 x(17)#17 + 665 x(18)#18 + 599 x(19)#19 + 755 x(20)#20
     + 774 x(21)#21 + 25 x(22)#22 + 165 x(23)#23 + 129 x(24)#24 + 403 x(25)#25
     + 49 x(26)#26 + 681 x(27)#27 + 443 x(28)#28 + 148 x(29)#29 + 141 x(30)#30
     + 484 x(31)#31 + 414 x(32)#32 + 868 x(33)#33 + 86 x(34)#34 + 295 x(35)#35
     + 484 x(36)#36 + 38 x(37)#37 + 419 x(38)#38 + 833 x(39)#39 + 706 x(40)#40
     + 70 x(41)#41 + 481 x(42)#42 + 689 x(43)#43 + 914 x(44)#44 + 218 x(45)#45
     + 803 x(46)#46 + 867 x(47)#47 + 416 x(48)#48 + 47 x(49)#49 + 120 x(50)#50
     + 290 x(51)#51 + 781 x(52)#52 + 459 x(53)#53 + 520 x(54)#54 + 25 x(55)#55
     + 173 x(56)#56 + 911 x(57)#57 + 244 x(58)#58 + 618 x(59)#59 + 193 x(60)#60
     + 248 x(61)#61 + 664 x(62)#62 + 674 x(63)#63 + 452 x(64)#64 + 641 x(65)#65
     + 457 x(66)#66 + 323 x(67)#67 + 286 x(68)#68 + 434 x(69)#69 + 541 x(70)#70
     + 904 x(71)#71 + 866 x(72)#72 + 326 x(73)#73 + 624 x(74)#74 + 445 x(75)#75
     + 615 x(76)#76 + 296 x(77)#77 + 600 x(78)#78 + 614 x(79)#79 + 673 x(80)#80
     + 923 x(81)#81 + 149 x(82)#82 + 493 x(83)#83 + 773 x(84)#84 + 604 x(85)#85
     + 811 x(86)#86 + 520 x(87)#87 + 343 x(88)#88 + 304 x(89)#89 + 147 x(90)#90
     + 576 x(91)#91 + 444 x(92)#92 + 349 x(93)#93 + 941 x(94)#94 + 809 x(95)#95
     + 639 x(96)#96 + 361 x(97)#97 + 366 x(98)#98 + 690 x(99)#99 <= 23993
 c2: 203 x(0)#0 + 685 x(1)#1 + 977 x(2)#2 + 28 x(3)#3 + 292 x(4)#4 + 95 x(5)#5
     + 558 x(6)#6 + 427 x(7)#7 + 542 x(8)#8 + 770 x(9)#9 + 669 x(10)#10
     + 14 x(11)#11 + 59 x(12)#12 + 63 x(13)#13 + 520 x(14)#14 + 206 x(15)#15
     + 14 x(16)#16 + 447 x(17)#17 + 372 x(18)#18 + 816 x(19)#19 + 504 x(20)#20
     + 271 x(21)#21 + 342 x(22)#22 + 650 x(23)#23 + 669 x(24)#24 + 658 x(25)#25
     + 326 x(26)#26 + 976 x(27)#27 + 398 x(28)#28 + 902 x(29)#29 + 645 x(30)#30
     + 932 x(31)#31 + 868 x(32)#32 + 6 x(33)#33 + 533 x(34)#34 + 719 x(35)#35
     + 241 x(36)#36 + 778 x(37)#37 + 244 x(38)#38 + 185 x(39)#39 + 63 x(40)#40
     + 369 x(41)#41 + 152 x(42)#42 + 114 x(43)#43 + 541 x(44)#44 + 202 x(45)#45
     + 129 x(46)#46 + 735 x(47)#47 + 485 x(48)#48 + 109 x(49)#49 + 954 x(50)#50
     + 307 x(51)#51 + 375 x(52)#52 + 460 x(53)#53 + 397 x(54)#54 + 779 x(55)#55
     + 203 x(56)#56 + 265 x(57)#57 + 217 x(58)#58 + 415 x(59)#59 + 705 x(60)#60
     + 630 x(61)#61 + 485 x(62)#62 + 889 x(63)#63 + 849 x(64)#64 + 958 x(65)#65
     + 66 x(66)#66 + 175 x(67)#67 + 57 x(68)#68 + 39 x(69)#69 + 234 x(70)#70
     + 809 x(71)#71 + 17 x(72)#72 + 4 x(73)#73 + 402 x(74)#74 + 882 x(75)#75
     + 336 x(76)#76 + 109 x(77)#77 + 696 x(78)#78 + 222 x(79)#79 + 805 x(80)#80
     + 893 x(81)#81 + 212 x(82)#82 + 768 x(83)#83 + 389 x(84)#84 + 15 x(85)#85
     + 848 x(86)#86 + 968 x(87)#87 + 551 x(88)#88 + 367 x(89)#89 + 456 x(90)#90
     + 590 x(91)#91 + 553 x(92)#92 + 946 x(93)#93 + 672 x(94)#94 + 241 x(95)#95
     + 576 x(96)#96 + 517 x(97)#97 + 640 x(98)#98 + 822 x(99)#99 <= 23134
 c3: 330 x(0)#0 + 574 x(1)#1 + 440 x(2)#2 + 922 x(3)#3 + 341 x(4)#4
     + 701 x(5)#5 + 979 x(6)#6 + 974 x(7)#7 + 747 x(8)#8 + 47 x(9)#9
     + 69 x(10)#10 + 117 x(11)#11 + 523 x(12)#12 + 913 x(13)#13 + 83 x(14)#14
     + 967 x(15)#15 + 65 x(16)#16 + 647 x(17)#17 + 983 x(18)#18 + 762 x(19)#19
     + 384 x(20)#20 + 47 x(21)#21 + 89 x(22)#22 + 885 x(23)#23 + 21 x(24)#24
     + 745 x(25)#25 + 349 x(26)#26 + 741 x(27)#27 + 188 x(28)#28 + 3 x(29)#29
     + 526 x(30)#30 + 236 x(31)#31 + 974 x(32)#32 + 270 x(33)#33 + 366 x(34)#34
     + 292 x(35)#35 + 441 x(36)#36 + 594 x(37)#37 + 490 x(38)#38 + 807 x(39)#39
     + 326 x(40)#40 + 546 x(41)#41 + 687 x(42)#42 + 707 x(43)#43 + 593 x(44)#44
     + 230 x(45)#45 + 712 x(46)#46 + 360 x(47)#47 + 475 x(48)#48 + 261 x(49)#49
     + 522 x(50)#50 + 314 x(51)#51 + 543 x(52)#52 + 31 x(53)#53 + 445 x(54)#54
     + 909 x(55)#55 + 670 x(56)#56 + 188 x(57)#57 + 483 x(58)#58 + 676 x(59)#59
     + 218 x(60)#60 + 919 x(61)#61 + 742 x(62)#62 + 751 x(63)#63 + 685 x(64)#64
     + 583 x(65)#65 + 876 x(66)#66 + 687 x(67)#67 + 592 x(68)#68 + 3 x(69)#69
     + 681 x(70)#70 + 643 x(71)#71 + 946 x(72)#72 + 627 x(73)#73 + 352 x(74)#74
     + 585 x(75)#75 + 135 x(76)#76 + 255 x(77)#77 + 985 x(78)#78 + 323 x(79)#79
     + 404 x(80)#80 + 328 x(81)#81 + 473 x(82)#82 + 79 x(83)#83 + 803 x(84)#84
     + 928 x(85)#85 + 525 x(86)#86 + 957 x(87)#87 + 147 x(88)#88 + 163 x(89)#89
     + 940 x(90)#90 + 710 x(91)#91 + 373 x(92)#92 + 346 x(93)#93 + 279 x(94)#94
     + 320 x(95)#95 + 942 x(96)#96 + 235 x(97)#97 + 426 x(98)#98 + 252 x(99)#99
     <= 25264
 c4: 536 x(0)#0 + 826 x(1)#1 + 575 x(2)#2 + 44 x(3)#3 + 727 x(4)#4 + 349 x(5)#5
     + 455 x(6)#6 + 181 x(7)#7 + 668 x(8)#8 + 274 x(9)#9 + 999 x(10)#10
     + 225 x(11)#11 + 27 x(12)#12 + 514 x(13)#13 + 740 x(14)#14 + 585 x(15)#15
     + 804 x(16)#16 + 994 x(17)#17 + 607 x(18)#18 + 477 x(19)#19 + 349 x(20)#20
     + 357 x(21)#21 + 406 x(22)#22 + 275 x(23)#23 + 522 x(24)#24 + 548 x(25)#25
     + 337 x(26)#26 + 656 x(27)#27 + 10 x(28)#28 + 136 x(29)#29 + 831 x(30)#30
     + 666 x(31)#31 + 881 x(32)#32 + 373 x(33)#33 + 172 x(34)#34 + 185 x(35)#35
     + 876 x(36)#36 + 494 x(37)#37 + 211 x(38)#38 + 697 x(39)#39 + 648 x(40)#40
     + 224 x(41)#41 + 826 x(42)#42 + 585 x(43)#43 + 233 x(44)#44 + 49 x(45)#45
     + 819 x(46)#46 + 200 x(47)#47 + 659 x(48)#48 + 61 x(49)#49 + 644 x(50)#50
     + 677 x(51)#51 + 723 x(52)#52 + 955 x(53)#53 + 163 x(54)#54 + 643 x(55)#55
     + 171 x(56)#56 + 132 x(57)#57 + 859 x(58)#58 + 390 x(59)#59 + 936 x(60)#60
     + 767 x(61)#61 + 501 x(62)#62 + 680 x(63)#63 + 403 x(64)#64 + 836 x(65)#65
     + 447 x(66)#66 + 466 x(67)#67 + 617 x(68)#68 + 879 x(69)#69 + 501 x(70)#70
     + 244 x(71)#71 + 468 x(72)#72 + 921 x(73)#73 + 282 x(74)#74 + 147 x(75)#75
     + 229 x(76)#76 + 893 x(77)#77 + 261 x(78)#78 + 61 x(79)#79 + 344 x(80)#80
     + 680 x(81)#81 + 100 x(82)#82 + 685 x(83)#83 + 805 x(84)#84 + 869 x(85)#85
     + 385 x(86)#86 + 159 x(87)#87 + 296 x(88)#88 + 355 x(89)#89 + 535 x(90)#90
     + 610 x(91)#91 + 856 x(92)#92 + 103 x(93)#93 + 203 x(94)#94 + 120 x(95)#95
     + 584 x(96)#96 + 289 x(97)#97 + 50 x(98)#98 + 744 x(99)#99 <= 24281
 c5: 959 x(0)#0 + 48 x(1)#1 + 262 x(2)#2 + 398 x(3)#3 + 847 x(4)#4 + 828 x(5)#5
     + 624 x(6)#6 + 807 x(7)#7 + 239 x(8)#8 + 504 x(9)#9 + 52 x(10)#10
     + 678 x(11)#11 + 770 x(12)#12 + 443 x(13)#13 + 647 x(14)#14 + 549 x(15)#15
     + 844 x(16)#16 + 811 x(17)#17 + 306 x(18)#18 + 5 x(19)#19 + 504 x(20)#20
     + 120 x(21)#21 + 491 x(22)#22 + 324 x(23)#23 + 851 x(24)#24 + 850 x(25)#25
     + 64 x(26)#26 + 418 x(27)#27 + 533 x(28)#28 + 450 x(29)#29 + 443 x(30)#30
     + 561 x(31)#31 + 693 x(32)#32 + 112 x(33)#33 + 788 x(34)#34 + 647 x(35)#35
     + 281 x(36)#36 + 754 x(37)#37 + 385 x(38)#38 + 221 x(39)#39 + 576 x(40)#40
     + 368 x(41)#41 + 462 x(42)#42 + 869 x(43)#43 + 785 x(44)#44 + 664 x(45)#45
     + 701 x(46)#46 + 542 x(47)#47 + 176 x(48)#48 + 988 x(49)#49 + 516 x(50)#50
     + 903 x(51)#51 + 35 x(52)#52 + 445 x(53)#53 + 833 x(54)#54 + 997 x(55)#55
     + 392 x(56)#56 + 509 x(57)#57 + 38 x(58)#58 + 772 x(59)#59 + 764 x(60)#60
     + 616 x(61)#61 + 764 x(62)#62 + 151 x(63)#63 + 931 x(64)#64 + 609 x(65)#65
     + 736 x(66)#66 + 248 x(67)#67 + 828 x(68)#68 + 923 x(69)#69 + 776 x(70)#70
     + 198 x(71)#71 + 800 x(72)#72 + 238 x(73)#73 + 893 x(74)#74 + 753 x(75)#75
     + 102 x(76)#76 + 461 x(77)#77 + 654 x(78)#78 + 623 x(79)#79 + 383 x(80)#80
     + 569 x(81)#81 + 736 x(82)#82 + 412 x(83)#83 + 602 x(84)#84 + 224 x(85)#85
     + 175 x(86)#86 + 315 x(87)#87 + 432 x(88)#88 + 315 x(89)#89 + 971 x(90)#90
     + 224 x(91)#91 + 492 x(92)#92 + 34 x(93)#93 + 355 x(94)#94 + 433 x(95)#95
     + 34 x(96)#96 + 408 x(97)#97 + 586 x(98)#98 + 295 x(99)#99 <= 25873
Bounds
 0 <= x(0)#0 <= 1
 0 <= x(1)#1 <= 1
 0 <= x(2)#2 <= 1
 0 <= x(3)#3 <= 1
 0 <= x(4)#4 <= 1
 0 <= x(5)#5 <= 1
 0 <= x(6)#6 <= 1
 0 <= x(7)#7 <= 1
 0 <= x(8)#8 <= 1
 0 <= x(9)#9 <= 1
 0 <= x(10)#10 <= 1
 0 <= x(11)#11 <= 1
 0 <= x(12)#12 <= 1
 0 <= x(13)#13 <= 1
 0 <= x(14)#14 <= 1
 0 <= x(15)#15 <= 1
 0 <= x(16)#16 <= 1
 0 <= x(17)#17 <= 1
 0 <= x(18)#18 <= 1
 0 <= x(19)#19 <= 1
 0 <= x(20)#20 <= 1
 0 <= x(21)#21 <= 1
 0 <= x(22)#22 <= 1
 0 <= x(23)#23 <= 1
 0 <= x(24)#24 <= 1
 0 <= x(25)#25 <= 1
 0 <= x(26)#26 <= 1
 0 <= x(27)#27 <= 1
 0 <= x(28)#28 <= 1
 0 <= x(29)#29 <= 1
 0 <= x(30)#30 <= 1
 0 <= x(31)#31 <= 1
 0 <= x(32)#32 <= 1
 0 <= x(33)#33 <= 1
 0 <= x(34)#34 <= 1
 0 <= x(35)#35 <= 1
 0 <= x(36)#36 <= 1
 0 <= x(37)#37 <= 1
 0 <= x(38)#38 <= 1
 0 <= x(39)#39 <= 1
 0 <= x(40)#40 <= 1
 0 <= x(41)#41 <= 1
 0 <= x(42)#42 <= 1
 0 <= x(43)#43 <= 1
 0 <= x(44)#44 <= 1
 0 <= x(45)#45 <= 1
 0 <= x(46)#46 <= 1
 0 <= x(47)#47 <= 1
 0 <= x(48)#48 <= 1
 0 <= x(49)#49 <= 1
 0 <= x(50)#50 <= 1
 0 <= x(51)#51 <= 1
 0 <= x(52)#52 <= 1
 0 <= x(53)#53 <= 1
 0 <= x(54)#54 <= 1
 0 <= x(55)#55 <= 1
 0 <= x(56)#56 <= 1
 0 <= x(57)#57 <= 1
 0 <= x(58)#58 <= 1
 0 <= x(59)#59 <= 1
 0 <= x(60)#60 <= 1
 0 <= x(61)#61 <= 1
 0 <= x(62)#62 <= 1
 0 <= x(63)#63 <= 1
 0 <= x(64)#64 <= 1
 0 <= x(65)#65 <= 1
 0 <= x(66)#66 <= 1
 0 <= x(67)#67 <= 1
 0 <= x(68)#68 <= 1
 0 <= x(69)#69 <= 1
 0 <= x(70)#70 <= 1
 0 <= x(71)#71 <= 1
 0 <= x(72)#72 <= 1
 0 <= x(73)#73 <= 1
 0 <= x(74)#74 <= 1
 0 <= x(75)#75 <= 1
 0 <= x(76)#76 <= 1
 0 <= x(77)#77 <= 1
 0 <= x(78)#78 <= 1
 0 <= x(79)#79 <= 1
 0 <= x(80)#80 <= 1
 0 <= x(81)#81 <= 1
 0 <= x(82)#82 <= 1
 0 <= x(83)#83 <= 1
 0 <= x(84)#84 <= 1
 0 <= x(85)#85 <= 1
 0 <= x(86)#86 <= 1
 0 <= x(87)#87 <= 1
 0 <= x(88)#88 <= 1
 0 <= x(89)#89 <= 1
 0 <= x(90)#90 <= 1
 0 <= x(91)#91 <= 1
 0 <= x(92)#92 <= 1
 0 <= x(93)#93 <= 1
 0 <= x(94)#94 <= 1
 0 <= x(95)#95 <= 1
 0 <= x(96)#96 <= 1
 0 <= x(97)#97 <= 1
 0 <= x(98)#98 <= 1
 0 <= x(99)#99 <= 1
Generals
 x(0)#0  x(1)#1  x(2)#2  x(3)#3  x(4)#4  x(5)#5  x(6)#6  x(7)#7  x(8)#8 
 x(9)#9  x(10)#10  x(11)#11  x(12)#12  x(13)#13  x(14)#14  x(15)#15  x(16)#16 
 x(17)#17  x(18)#18  x(19)#19  x(20)#20  x(21)#21  x(22)#22  x(23)#23 
 x(24)#24  x(25)#25  x(26)#26  x(27)#27  x(28)#28  x(29)#29  x(30)#30 
 x(31)#31  x(32)#32  x(33)#33  x(34)#34  x(35)#35  x(36)#36  x(37)#37 
 x(38)#38  x(39)#39  x(40)#40  x(41)#41  x(42)#42  x(43)#43  x(44)#44 
 x(45)#45  x(46)#46  x(47)#47  x(48)#48  x(49)#49  x(50)#50  x(51)#51 
 x(52)#52  x(53)#53  x(54)#54  x(55)#55  x(56)#56  x(57)#57  x(58)#58 
 x(59)#59  x(60)#60  x(61)#61  x(62)#62  x(63)#63  x(64)#64  x(65)#65 
 x(66)#66  x(67)#67  x(68)#68  x(69)#69  x(70)#70  x(71)#71  x(72)#72 
 x(73)#73  x(74)#74  x(75)#75  x(76)#76  x(77)#77  x(78)#78  x(79)#79 
 x(80)#80  x(81)#81  x(82)#82  x(83)#83  x(84)#84  x(85)#85  x(86)#86 
 x(87)#87  x(88)#88  x(89)#89  x(90)#90  x(91)#91  x(92)#92  x(93)#93 
 x(94)#94  x(95)#95  x(96)#96  x(97)#97  x(98)#98  x(99)#99 
End
